50
8653

218 919
855 882
382 569
297 211
580 980
112 49
660 698
708 624
637 664
565 483
732 14
849 321
232 692
293 894
239 128
54 429
625 881
404 744
302 358
185 75
262 312
848 394
190 781
805 209
813 563
274 364
961 302
789 547
230 2
867 266
726 657
396 577
454 738
210 485
987 43
666 458
377 921
537 651
888 917
443 114
63 893
289 665
172 535
720 624
667 568
101 372
341 243
692 936
6 857
95 893
